c Reduced graph for r02 generated by Cyril Grelier
p edge 131 1124
e 1 2
e 1 3
e 1 4
e 1 5
e 1 6
e 1 7
e 1 8
e 1 9
e 1 10
e 1 11
e 1 12
e 1 17
e 1 18
e 1 23
e 1 24
e 1 25
e 1 26
e 1 27
e 1 32
e 1 57
e 1 79
e 1 80
e 1 131
e 2 3
e 2 4
e 2 5
e 2 6
e 2 7
e 2 8
e 2 9
e 2 13
e 2 19
e 2 24
e 2 25
e 2 26
e 2 28
e 2 35
e 2 37
e 2 45
e 2 49
e 2 81
e 2 84
e 2 93
e 2 131
e 3 4
e 3 5
e 3 6
e 3 7
e 3 8
e 3 9
e 3 14
e 3 20
e 3 24
e 3 25
e 3 26
e 3 29
e 3 38
e 3 46
e 3 50
e 3 52
e 3 58
e 3 85
e 3 119
e 3 131
e 4 5
e 4 6
e 4 7
e 4 8
e 4 9
e 4 15
e 4 21
e 4 24
e 4 25
e 4 26
e 4 30
e 4 36
e 4 39
e 4 47
e 4 53
e 4 59
e 4 82
e 4 94
e 4 131
e 5 6
e 5 7
e 5 8
e 5 9
e 5 24
e 5 25
e 5 26
e 5 41
e 5 54
e 5 61
e 5 68
e 5 74
e 5 102
e 5 113
e 5 115
e 5 126
e 5 131
e 6 7
e 6 8
e 6 9
e 6 24
e 6 25
e 6 26
e 6 62
e 6 65
e 6 69
e 6 71
e 6 75
e 6 99
e 6 103
e 6 114
e 6 127
e 6 131
e 7 8
e 7 9
e 7 24
e 7 25
e 7 26
e 7 33
e 7 42
e 7 63
e 7 70
e 7 76
e 7 86
e 7 100
e 7 116
e 7 128
e 7 131
e 8 9
e 8 24
e 8 25
e 8 26
e 8 34
e 8 43
e 8 55
e 8 64
e 8 66
e 8 72
e 8 77
e 8 87
e 8 117
e 8 131
e 9 24
e 9 25
e 9 26
e 9 44
e 9 56
e 9 67
e 9 73
e 9 78
e 9 88
e 9 101
e 9 104
e 9 118
e 9 131
e 10 11
e 10 12
e 10 13
e 10 14
e 10 15
e 10 16
e 10 17
e 10 18
e 10 23
e 10 27
e 10 32
e 10 33
e 10 34
e 10 57
e 10 79
e 10 80
e 10 89
e 10 90
e 10 91
e 11 12
e 11 17
e 11 18
e 11 19
e 11 20
e 11 21
e 11 22
e 11 23
e 11 27
e 11 32
e 11 41
e 11 42
e 11 43
e 11 44
e 11 57
e 11 79
e 11 80
e 11 92
e 12 17
e 12 18
e 12 23
e 12 27
e 12 28
e 12 29
e 12 30
e 12 31
e 12 32
e 12 54
e 12 55
e 12 56
e 12 57
e 12 79
e 12 80
e 12 97
e 12 98
e 13 14
e 13 15
e 13 16
e 13 19
e 13 28
e 13 33
e 13 34
e 13 35
e 13 37
e 13 45
e 13 49
e 13 81
e 13 84
e 13 89
e 13 90
e 13 91
e 13 93
e 14 15
e 14 16
e 14 20
e 14 29
e 14 33
e 14 34
e 14 38
e 14 46
e 14 50
e 14 52
e 14 58
e 14 85
e 14 89
e 14 90
e 14 91
e 14 119
e 15 16
e 15 21
e 15 30
e 15 33
e 15 34
e 15 36
e 15 39
e 15 47
e 15 53
e 15 59
e 15 82
e 15 89
e 15 90
e 15 91
e 15 94
e 16 22
e 16 31
e 16 33
e 16 34
e 16 40
e 16 48
e 16 51
e 16 60
e 16 83
e 16 89
e 16 90
e 16 91
e 16 95
e 16 96
e 16 120
e 17 18
e 17 23
e 17 27
e 17 32
e 17 35
e 17 36
e 17 57
e 17 61
e 17 62
e 17 63
e 17 64
e 17 79
e 17 80
e 17 105
e 17 106
e 18 23
e 18 27
e 18 32
e 18 37
e 18 38
e 18 39
e 18 40
e 18 57
e 18 65
e 18 66
e 18 67
e 18 79
e 18 80
e 18 107
e 19 20
e 19 21
e 19 22
e 19 28
e 19 35
e 19 37
e 19 41
e 19 42
e 19 43
e 19 44
e 19 45
e 19 49
e 19 81
e 19 84
e 19 92
e 19 93
e 20 21
e 20 22
e 20 29
e 20 38
e 20 41
e 20 42
e 20 43
e 20 44
e 20 46
e 20 50
e 20 52
e 20 58
e 20 85
e 20 92
e 20 119
e 21 22
e 21 30
e 21 36
e 21 39
e 21 41
e 21 42
e 21 43
e 21 44
e 21 47
e 21 53
e 21 59
e 21 82
e 21 92
e 21 94
e 22 31
e 22 40
e 22 41
e 22 42
e 22 43
e 22 44
e 22 48
e 22 51
e 22 60
e 22 83
e 22 92
e 22 95
e 22 96
e 22 120
e 23 27
e 23 32
e 23 45
e 23 46
e 23 47
e 23 48
e 23 57
e 23 68
e 23 69
e 23 70
e 23 79
e 23 80
e 23 108
e 24 25
e 24 26
e 24 89
e 24 92
e 24 97
e 24 108
e 24 121
e 24 122
e 24 130
e 24 131
e 25 26
e 25 90
e 25 105
e 25 109
e 25 111
e 25 123
e 25 124
e 25 129
e 25 131
e 26 91
e 26 98
e 26 106
e 26 107
e 26 110
e 26 112
e 26 125
e 26 131
e 27 32
e 27 49
e 27 50
e 27 51
e 27 57
e 27 71
e 27 72
e 27 73
e 27 79
e 27 80
e 27 109
e 27 110
e 28 29
e 28 30
e 28 31
e 28 35
e 28 37
e 28 45
e 28 49
e 28 54
e 28 55
e 28 56
e 28 81
e 28 84
e 28 93
e 28 97
e 28 98
e 29 30
e 29 31
e 29 38
e 29 46
e 29 50
e 29 52
e 29 54
e 29 55
e 29 56
e 29 58
e 29 85
e 29 97
e 29 98
e 29 119
e 30 31
e 30 36
e 30 39
e 30 47
e 30 53
e 30 54
e 30 55
e 30 56
e 30 59
e 30 82
e 30 94
e 30 97
e 30 98
e 31 40
e 31 48
e 31 51
e 31 54
e 31 55
e 31 56
e 31 60
e 31 83
e 31 95
e 31 96
e 31 97
e 31 98
e 31 120
e 32 57
e 32 58
e 32 59
e 32 60
e 32 79
e 32 80
e 32 86
e 32 87
e 32 88
e 32 121
e 33 34
e 33 42
e 33 63
e 33 70
e 33 76
e 33 86
e 33 89
e 33 90
e 33 91
e 33 100
e 33 116
e 33 128
e 34 43
e 34 55
e 34 64
e 34 66
e 34 72
e 34 77
e 34 87
e 34 89
e 34 90
e 34 91
e 34 117
e 35 36
e 35 37
e 35 45
e 35 49
e 35 61
e 35 62
e 35 63
e 35 64
e 35 81
e 35 84
e 35 93
e 35 105
e 35 106
e 36 39
e 36 47
e 36 53
e 36 59
e 36 61
e 36 62
e 36 63
e 36 64
e 36 82
e 36 94
e 36 105
e 36 106
e 37 38
e 37 39
e 37 40
e 37 45
e 37 49
e 37 65
e 37 66
e 37 67
e 37 81
e 37 84
e 37 93
e 37 107
e 38 39
e 38 40
e 38 46
e 38 50
e 38 52
e 38 58
e 38 65
e 38 66
e 38 67
e 38 85
e 38 107
e 38 119
e 39 40
e 39 47
e 39 53
e 39 59
e 39 65
e 39 66
e 39 67
e 39 82
e 39 94
e 39 107
e 40 48
e 40 51
e 40 60
e 40 65
e 40 66
e 40 67
e 40 83
e 40 95
e 40 96
e 40 107
e 40 120
e 41 42
e 41 43
e 41 44
e 41 54
e 41 61
e 41 68
e 41 74
e 41 92
e 41 102
e 41 113
e 41 115
e 41 126
e 42 43
e 42 44
e 42 63
e 42 70
e 42 76
e 42 86
e 42 92
e 42 100
e 42 116
e 42 128
e 43 44
e 43 55
e 43 64
e 43 66
e 43 72
e 43 77
e 43 87
e 43 92
e 43 117
e 44 56
e 44 67
e 44 73
e 44 78
e 44 88
e 44 92
e 44 101
e 44 104
e 44 118
e 45 46
e 45 47
e 45 48
e 45 49
e 45 68
e 45 69
e 45 70
e 45 81
e 45 84
e 45 93
e 45 108
e 46 47
e 46 48
e 46 50
e 46 52
e 46 58
e 46 68
e 46 69
e 46 70
e 46 85
e 46 108
e 46 119
e 47 48
e 47 53
e 47 59
e 47 68
e 47 69
e 47 70
e 47 82
e 47 94
e 47 108
e 48 51
e 48 60
e 48 68
e 48 69
e 48 70
e 48 83
e 48 95
e 48 96
e 48 108
e 48 120
e 49 50
e 49 51
e 49 71
e 49 72
e 49 73
e 49 81
e 49 84
e 49 93
e 49 109
e 49 110
e 50 51
e 50 52
e 50 58
e 50 71
e 50 72
e 50 73
e 50 85
e 50 109
e 50 110
e 50 119
e 51 60
e 51 71
e 51 72
e 51 73
e 51 83
e 51 95
e 51 96
e 51 109
e 51 110
e 51 120
e 52 53
e 52 58
e 52 74
e 52 75
e 52 76
e 52 77
e 52 78
e 52 85
e 52 111
e 52 112
e 52 119
e 53 59
e 53 74
e 53 75
e 53 76
e 53 77
e 53 78
e 53 82
e 53 94
e 53 111
e 53 112
e 54 55
e 54 56
e 54 61
e 54 68
e 54 74
e 54 97
e 54 98
e 54 102
e 54 113
e 54 115
e 54 126
e 55 56
e 55 64
e 55 66
e 55 72
e 55 77
e 55 87
e 55 97
e 55 98
e 55 117
e 56 67
e 56 73
e 56 78
e 56 88
e 56 97
e 56 98
e 56 101
e 56 104
e 56 118
e 57 79
e 57 80
e 57 84
e 57 85
e 57 102
e 57 103
e 57 104
e 57 124
e 57 125
e 58 59
e 58 60
e 58 85
e 58 86
e 58 87
e 58 88
e 58 119
e 58 121
e 59 60
e 59 82
e 59 86
e 59 87
e 59 88
e 59 94
e 59 121
e 60 83
e 60 86
e 60 87
e 60 88
e 60 95
e 60 96
e 60 120
e 60 121
e 61 62
e 61 63
e 61 64
e 61 68
e 61 74
e 61 102
e 61 105
e 61 106
e 61 113
e 61 115
e 61 126
e 62 63
e 62 64
e 62 65
e 62 69
e 62 71
e 62 75
e 62 99
e 62 103
e 62 105
e 62 106
e 62 114
e 62 127
e 63 64
e 63 70
e 63 76
e 63 86
e 63 100
e 63 105
e 63 106
e 63 116
e 63 128
e 64 66
e 64 72
e 64 77
e 64 87
e 64 105
e 64 106
e 64 117
e 65 66
e 65 67
e 65 69
e 65 71
e 65 75
e 65 99
e 65 103
e 65 107
e 65 114
e 65 127
e 66 67
e 66 72
e 66 77
e 66 87
e 66 107
e 66 117
e 67 73
e 67 78
e 67 88
e 67 101
e 67 104
e 67 107
e 67 118
e 68 69
e 68 70
e 68 74
e 68 102
e 68 108
e 68 113
e 68 115
e 68 126
e 69 70
e 69 71
e 69 75
e 69 99
e 69 103
e 69 108
e 69 114
e 69 127
e 70 76
e 70 86
e 70 100
e 70 108
e 70 116
e 70 128
e 71 72
e 71 73
e 71 75
e 71 99
e 71 103
e 71 109
e 71 110
e 71 114
e 71 127
e 72 73
e 72 77
e 72 87
e 72 109
e 72 110
e 72 117
e 73 78
e 73 88
e 73 101
e 73 104
e 73 109
e 73 110
e 73 118
e 74 75
e 74 76
e 74 77
e 74 78
e 74 102
e 74 111
e 74 112
e 74 113
e 74 115
e 74 126
e 75 76
e 75 77
e 75 78
e 75 99
e 75 103
e 75 111
e 75 112
e 75 114
e 75 127
e 76 77
e 76 78
e 76 86
e 76 100
e 76 111
e 76 112
e 76 116
e 76 128
e 77 78
e 77 87
e 77 111
e 77 112
e 77 117
e 78 88
e 78 101
e 78 104
e 78 111
e 78 112
e 78 118
e 79 80
e 79 93
e 79 94
e 79 95
e 79 113
e 79 114
e 79 129
e 80 96
e 80 115
e 80 116
e 80 117
e 80 118
e 80 130
e 81 82
e 81 83
e 81 84
e 81 93
e 81 99
e 81 100
e 81 101
e 81 122
e 81 123
e 82 83
e 82 94
e 82 99
e 82 100
e 82 101
e 82 122
e 82 123
e 83 95
e 83 96
e 83 99
e 83 100
e 83 101
e 83 120
e 83 122
e 83 123
e 84 85
e 84 93
e 84 102
e 84 103
e 84 104
e 84 124
e 84 125
e 85 102
e 85 103
e 85 104
e 85 119
e 85 124
e 85 125
e 86 87
e 86 88
e 86 100
e 86 116
e 86 121
e 86 128
e 87 88
e 87 117
e 87 121
e 88 101
e 88 104
e 88 118
e 88 121
e 89 90
e 89 91
e 89 92
e 89 97
e 89 108
e 89 121
e 89 122
e 89 130
e 90 91
e 90 105
e 90 109
e 90 111
e 90 123
e 90 124
e 90 129
e 91 98
e 91 106
e 91 107
e 91 110
e 91 112
e 91 125
e 92 97
e 92 108
e 92 121
e 92 122
e 92 130
e 93 94
e 93 95
e 93 113
e 93 114
e 93 129
e 94 95
e 94 113
e 94 114
e 94 129
e 95 96
e 95 113
e 95 114
e 95 120
e 95 129
e 96 115
e 96 116
e 96 117
e 96 118
e 96 120
e 96 130
e 97 98
e 97 108
e 97 121
e 97 122
e 97 130
e 98 106
e 98 107
e 98 110
e 98 112
e 98 125
e 99 100
e 99 101
e 99 103
e 99 114
e 99 122
e 99 123
e 99 127
e 100 101
e 100 116
e 100 122
e 100 123
e 100 128
e 101 104
e 101 118
e 101 122
e 101 123
e 102 103
e 102 104
e 102 113
e 102 115
e 102 124
e 102 125
e 102 126
e 103 104
e 103 114
e 103 124
e 103 125
e 103 127
e 104 118
e 104 124
e 104 125
e 105 106
e 105 109
e 105 111
e 105 123
e 105 124
e 105 129
e 106 107
e 106 110
e 106 112
e 106 125
e 107 110
e 107 112
e 107 125
e 108 121
e 108 122
e 108 130
e 109 110
e 109 111
e 109 123
e 109 124
e 109 129
e 110 112
e 110 125
e 111 112
e 111 123
e 111 124
e 111 129
e 112 125
e 113 114
e 113 115
e 113 126
e 113 129
e 114 127
e 114 129
e 115 116
e 115 117
e 115 118
e 115 126
e 115 130
e 116 117
e 116 118
e 116 128
e 116 130
e 117 118
e 117 130
e 118 130
e 119 120
e 119 126
e 119 127
e 119 128
e 120 126
e 120 127
e 120 128
e 121 122
e 121 130
e 122 123
e 122 130
e 123 124
e 123 129
e 124 125
e 124 129
e 126 127
e 126 128
e 127 128
